(set-option :produce-models true)
(set-logic QF_UF)
(declare-fun p43() Bool)
(declare-fun p30() Bool)
(declare-fun p23() Bool)
(declare-fun p39() Bool)
(declare-fun p40() Bool)
(declare-fun p14() Bool)
(declare-fun p7() Bool)
(declare-fun p28() Bool)
(declare-fun p49() Bool)
(declare-fun p0() Bool)
(declare-fun p34() Bool)
(declare-fun p22() Bool)
(declare-fun p6() Bool)
(declare-fun p16() Bool)
(declare-fun p26() Bool)
(declare-fun p5() Bool)
(declare-fun p20() Bool)
(declare-fun p11() Bool)
(declare-fun p44() Bool)
(declare-fun p25() Bool)
(declare-fun p10() Bool)
(declare-fun p48() Bool)
(declare-fun p38() Bool)
(declare-fun p4() Bool)
(declare-fun p31() Bool)
(declare-fun p8() Bool)
(declare-fun p24() Bool)
(declare-fun p47() Bool)
(declare-fun p12() Bool)
(declare-fun p42() Bool)
(declare-fun p9() Bool)
(declare-fun p18() Bool)
(declare-fun p37() Bool)
(declare-fun p35() Bool)
(declare-fun p2() Bool)
(declare-fun p46() Bool)
(declare-fun p29() Bool)
(declare-fun p19() Bool)
(declare-fun p21() Bool)
(declare-fun p17() Bool)
(declare-fun p1() Bool)
(declare-fun p32() Bool)
(declare-fun p36() Bool)
(declare-fun p3() Bool)
(declare-fun p27() Bool)
(declare-fun p15() Bool)
(declare-fun p45() Bool)
(declare-fun p33() Bool)
(declare-fun p13() Bool)
(declare-fun p41() Bool)
(assert
(and (or p43 (not p30) (not p23)) (or p39 (not p40) (not p14)) (or p7 p28 p49) (or p0 p34 p22) (or (not p6) p0 p16) (or (not p26) (not p5) p20) (or (not p11) p44 (not p11)) (or (not p25) (not p49) p10) (or (not p48) (not p38) (not p4)) (or p31 p8 (not p23)) (or (not p22) p11 (not p24)) (or p14 p6 p8) (or (not p47) p31 p44) (or (not p4) p12 (not p43)) (or p42 p24 p25) (or (not p9) p47 (not p9)) (or (not p18) p37 (not p24)) (or p30 p35 p37) (or (not p8) (not p20) p2) (or p35 (not p46) (not p42)) (or (not p39) (not p29) p19) (or p14 (not p37) p44) (or (not p21) (not p42) (not p26)) (or (not p35) (not p17) (not p12)) (or (not p35) p6 (not p17)) (or (not p6) (not p19) p18) (or p37 p17 p21) (or (not p17) p25 (not p46)) (or p21 p17 (not p1)) (or (not p38) p4 p2) (or (not p42) (not p11) (not p49)) (or (not p37) p21 (not p12)) (or (not p32) (not p21) (not p36)) (or (not p29) p44 (not p29)) (or (not p21) (not p24) p11) (or p31 p23 p16) (or (not p7) (not p24) (not p16)) (or p29 (not p48) (not p35)) (or p35 p22 (not p18)) (or (not p14) p24 (not p28)) (or p30 p19 p39) (or (not p6) p39 (not p21)) (or p38 (not p23) (not p11)) (or (not p26) (not p35) (not p28)) (or p4 (not p49) p9) (or p8 p18 (not p36)) (or p3 (not p5) (not p10)) (or (not p27) (not p31) (not p6)) (or p26 p29 p6) (or (not p24) (not p28) p23) (or (not p47) (not p30) p48) (or (not p34) p27 (not p4)) (or p12 (not p24) (not p9)) (or p0 p14 p48) (or (not p40) (not p4) p7) (or (not p44) p18 (not p3)) (or (not p30) p34 (not p8)) (or (not p40) (not p11) (not p10)) (or (not p29) p46 (not p24)) (or (not p29) (not p40) (not p23)) (or (not p37) (not p35) (not p21)) (or (not p17) (not p20) (not p14)) (or (not p9) (not p6) (not p21)) (or (not p23) (not p35) (not p18)) (or p18 (not p11) p34) (or (not p4) p1 (not p40)) (or p29 (not p17) (not p40)) (or (not p44) (not p38) (not p15)) (or (not p49) (not p14) p43) (or p35 (not p25) (not p28)) (or (not p6) (not p18) p39) (or (not p45) p21 p11) (or p4 p29 (not p30)) (or (not p26) (not p8) (not p49)) (or p35 (not p25) p46) (or (not p47) (not p34) p30) (or (not p8) (not p48) p28) (or p21 p29 (not p21)) (or p33 p12 p38) (or (not p47) (not p28) p20) (or (not p26) (not p26) p23) (or p38 p34 p45) (or (not p13) (not p47) (not p25)) (or (not p26) (not p19) p21) (or p0 (not p11) (not p37)) (or p26 p13 (not p32)) (or p1 (not p16) p12) (or p33 p31 p13) (or p43 p31 (not p3)) (or (not p4) p16 (not p13)) (or (not p30) (not p30) p49) (or (not p30) p36 (not p6)) (or p0 (not p14) p15) (or p13 (not p13) p1) (or (not p46) (not p40) p39) (or p0 (not p46) (not p23)) (or (not p5) p10 (not p41)) (or p35 (not p37) p23) (or (not p0) (not p25) (not p2)) (or p18 (not p10) (not p26)) (or p22 (not p27) p6) (or (not p19) (not p16) p25) (or p44 (not p44) p11) (or (not p0) p15 p21) (or p31 (not p5) (not p49)) (or p42 p1 p10) (or (not p5) p5 p6) (or (not p34) p15 (not p28)) (or p39 p20 (not p34)) (or p13 p38 (not p48)) (or (not p1) (not p39) p46) (or p40 (not p2) (not p12)) (or p12 (not p22) (not p3)) (or p12 (not p17) p21) (or p38 p14 p1) (or (not p24) (not p8) (not p30)) (or p7 (not p27) p20) (or (not p49) p33 p29) (or (not p10) (not p9) (not p2)) (or (not p4) (not p39) p44) (or (not p44) p19 (not p23)) (or p23 p32 (not p43)) (or (not p6) (not p30) (not p1)) (or (not p21) p44 (not p6)) (or p8 p39 p21) (or (not p45) p44 (not p9)) (or (not p30) (not p13) (not p3)) (or p0 p45 (not p49)) (or (not p36) p24 p37) (or p46 p8 (not p6)) (or (not p30) p15 p39) (or (not p14) (not p4) (not p35)) (or p42 p25 p41) (or p46 (not p0) (not p24)) (or (not p13) (not p49) (not p2)) (or (not p8) p46 p2) (or (not p10) p15 (not p20)) (or (not p28) (not p0) p45) (or p42 (not p23) (not p21)) (or p0 p22 (not p36)) (or p45 p8 p14) (or p44 p0 (not p23)) (or (not p21) (not p49) (not p32)) (or (not p3) (not p22) (not p9)) (or (not p29) p17 p39) (or p34 (not p21) p44) (or p15 (not p31) (not p44)) (or p28 (not p18) p29) (or p22 p1 p32) (or p35 p42 p24) (or (not p29) p47 p44) (or (not p47) (not p45) p33) (or (not p19) (not p5) (not p18)) (or (not p23) p24 p32) (or p12 (not p33) p46) (or p24 p39 (not p36)) (or p25 p29 p47) (or p47 (not p1) (not p20)) (or p42 p33 p10) (or p19 p14 (not p15)) (or p47 p15 p13) (or p17 p28 p36) (or p0 (not p10) (not p1)) (or (not p41) (not p32) p18) (or (not p12) (not p5) (not p48)) (or (not p39) p34 p25) (or (not p30) p30 (not p25)) (or (not p30) p4 (not p41)) (or p46 (not p28) p6) (or p6 p48 (not p18)) (or p11 (not p2) (not p4)) (or (not p42) (not p49) p2) (or (not p42) (not p46) (not p27)) (or (not p34) p9 (not p12)) (or (not p10) p19 p27) (or p43 p41 (not p4)) (or (not p26) (not p14) (not p11)) (or (not p26) (not p49) p8) (or (not p21) (not p7) (not p24)) (or (not p21) (not p47) p4) (or (not p46) p22 p15) (or (not p1) (not p38) (not p35)) (or (not p32) (not p14) p9) (or (not p6) p37 (not p39)) (or (not p39) (not p42) (not p36)) (or p6 p32 (not p32)) (or (not p46) (not p5) (not p27)) (or (not p4) (not p0) (not p33)) (or (not p39) p11 (not p16)) (or p18 (not p15) (not p30)) (or (not p36) p8 p28) (or p35 p21 (not p6)) (or (not p23) p6 p15) (or (not p47) (not p38) (not p32)) (or p10 (not p31) (not p0)) (or p37 p5 p27) (or (not p47) (not p32) p40) (or (not p21) (not p16) p15) (or (not p2) (not p31) p47) (or (not p21) p37 (not p41)) (or (not p11) (not p46) (not p22)) (or (not p0) (not p22) p24) (or (not p20) p42 p47) (or p30 p40 (not p37)) (or p3 (not p31) p35) (or (not p0) (not p4) (not p21)) (or p23 (not p46) p40) (or (not p43) p26 p3) (or (not p39) p21 p24) (or (not p42) p5 p32))
)
(check-sat)
(get-model)
